p cnf 63 231
3 4 -5 0
-3 -4 -5 0
3 -4 5 0
-3 4 5 0
-6 -2 0
-6 5 0
2 -5 6 0
7 6 0
7 -5 0
-6 5 -7 0
8 -1 0
8 7 0
1 -7 -8 0
9 1 -10 0
-9 -1 -10 0
9 -1 10 0
-9 1 10 0
-11 -10 0
-11 -9 0
10 9 11 0
8 -11 -12 0
-8 11 -12 0
8 11 12 0
-8 -11 12 0
9 -6 -13 0
-9 6 -13 0
9 6 13 0
-9 -6 13 0
14 -12 0
14 13 0
12 -13 -14 0
-15 16 0
15 16 0
19 17 0
19 18 0
-17 -18 -19 0
20 -5 0
20 19 0
5 -19 -20 0
-21 -16 0
-21 -20 0
16 20 21 0
-15 -9 -22 0
15 9 -22 0
-15 9 22 0
15 -9 22 0
-9 -13 -23 0
9 13 -23 0
-9 13 23 0
9 -13 23 0
-24 -22 0
-24 -23 0
22 23 24 0
21 -24 -25 0
-21 24 -25 0
21 24 25 0
-21 -24 25 0
-26 13 0
-26 3 0
-13 -3 26 0
27 -3 0
27 -6 0
3 6 -27 0
-28 -26 0
-28 -27 0
26 27 28 0
-30 -29 0
-30 9 0
29 -9 30 0
31 30 0
31 -15 0
-30 15 -31 0
30 -3 -32 0
-30 3 -32 0
30 3 32 0
-30 -3 32 0
-3 -27 -33 0
3 27 -33 0
-3 27 33 0
3 -27 33 0
33 -27 -34 0
-33 27 -34 0
33 27 34 0
-33 -27 34 0
-35 -32 0
-35 34 0
32 -34 35 0
-36 31 0
-36 -35 0
-31 35 36 0
-36 37 -38 0
36 -37 -38 0
-36 -37 38 0
36 37 38 0
28 -38 -39 0
-28 38 -39 0
28 38 39 0
-28 -38 39 0
-40 25 0
-40 39 0
-25 -39 40 0
14 40 -41 0
-14 -40 -41 0
14 -40 41 0
-14 40 41 0
-42 -6 0
-42 -11 0
6 11 42 0
-43 -30 0
-43 -22 0
30 22 43 0
44 -32 0
44 -43 0
32 43 -44 0
45 -22 0
45 15 0
22 -15 -45 0
44 -45 -46 0
-44 45 -46 0
44 45 46 0
-44 -45 46 0
-47 -30 0
-47 9 0
30 -9 47 0
-48 -13 0
-48 -43 0
13 43 48 0
-12 -48 -49 0
12 48 -49 0
-12 48 49 0
12 -48 49 0
50 -47 0
50 -49 0
47 49 -50 0
46 -50 -51 0
-46 50 -51 0
46 50 51 0
-46 -50 51 0
-52 -42 0
-52 -51 0
42 51 52 0
-41 -52 -53 0
41 52 -53 0
-41 52 53 0
41 -52 53 0
-54 -1 0
-54 -22 0
1 22 54 0
-55 54 0
-55 -4 0
-54 4 55 0
-15 -29 -56 0
15 29 -56 0
-15 29 56 0
15 -29 56 0
-57 -55 0
-57 -56 0
55 56 57 0
-58 -35 0
-58 27 0
35 -27 58 0
-57 -58 -59 0
57 58 -59 0
-57 58 59 0
57 -58 59 0
-60 -7 0
-60 7 0
60 -32 -61 0
-60 32 -61 0
60 32 61 0
-60 -32 61 0
62 59 0
62 -61 0
-59 61 -62 0
63 53 0
63 -62 0
-53 62 -63 0
-21 -49 0
-40 2 0
-46 -51 -59 -17 3 0
-32 -18 -24 62 0
51 60 -5 -18 15 0
-28 40 10 45 0
31 -38 0
24 -20 -16 37 0
51 18 29 -3 0
-59 33 62 30 39 -21 0
59 50 36 10 0
-22 60 0
-19 -37 -23 25 -57 0
6 -27 0
-11 16 0
-13 -9 0
13 -49 -33 -34 0
44 17 -62 -26 -11 63 0
32 35 18 0
9 34 63 0
-51 45 -18 -6 -55 0
-48 -55 -38 27 -59 -9 0
48 -45 -17 -31 -62 0
36 31 23 -37 -59 18 0
32 -2 23 61 52 59 0
53 30 -4 34 -39 -10 0
-29 26 -32 4 0
-63 -50 -42 54 -13 9 0
4 -15 -12 16 0
-12 18 0
-54 -52 0
5 -38 -49 61 -57 0
46 -31 0
-19 -44 26 43 0
28 36 0
-15 11 0
-41 9 39 0
36 52 12 25 -63 0
36 50 6 0
13 32 44 0
-42 9 -51 -33 -58 0
-56 -51 5 -15 32 16 0
-11 -4 0
24 45 57 26 -11 6 0
-14 -3 -50 0
-10 -16 23 60 20 -11 0
38 54 0
21 6 -19 0
-17 21 -33 -57 -28 0
-33 40 20 -55 -14 0
-22 28 18 0
-13 22 21 4 0
41 -28 0
63 0
